(set-logic QF_S)
(declare-fun var0 () String)
(assert (RegexIn var0 (RegexConcat (RegexPlus (RegexUnion (Str2Reg "000") (Str2Reg "1"))) (RegexConcat (RegexStar (RegexPlus (Str2Reg "222"))) (RegexConcat (RegexStar (RegexPlus (Str2Reg "33"))) (RegexConcat (RegexUnion (RegexPlus (Str2Reg "444")) (RegexPlus (Str2Reg "55"))) (RegexConcat (RegexStar (RegexUnion (Str2Reg "66") (Str2Reg "7"))) (RegexConcat (RegexStar (RegexPlus (Str2Reg "88"))) (RegexConcat (RegexStar (RegexPlus (Str2Reg "999"))) (RegexConcat (RegexStar (RegexStar (Str2Reg "a"))) (RegexConcat (RegexPlus (RegexUnion (Str2Reg "bbb") (Str2Reg "c"))) (RegexConcat (RegexUnion (RegexUnion (Str2Reg "dd") (Str2Reg "e")) (RegexUnion (Str2Reg "fff") (Str2Reg "g"))) (RegexConcat (RegexUnion (RegexPlus (Str2Reg "hhh")) (RegexPlus (Str2Reg "ii"))) (RegexConcat (RegexStar (RegexUnion (Str2Reg "jj") (Str2Reg "kkk"))) (RegexConcat (RegexUnion (RegexPlus (Str2Reg "lll")) (RegexPlus (Str2Reg "m"))) (RegexConcat (RegexPlus (RegexUnion (Str2Reg "nnn") (Str2Reg "o"))) (RegexConcat (RegexPlus (RegexPlus (Str2Reg "pp"))) (RegexConcat (RegexStar (RegexPlus (Str2Reg "q"))) (RegexConcat (RegexPlus (RegexUnion (Str2Reg "r") (Str2Reg "ss"))) (RegexConcat (RegexUnion (RegexStar (Str2Reg "ttt")) (RegexStar (Str2Reg "uuu"))) (RegexConcat (RegexPlus (RegexUnion (Str2Reg "vv") (Str2Reg "w"))) (RegexConcat (RegexUnion (RegexStar (Str2Reg "xx")) (RegexStar (Str2Reg "yy"))) (RegexConcat (RegexStar (RegexStar (Str2Reg "zz"))) (RegexConcat (RegexPlus (RegexPlus (Str2Reg "A"))) (RegexConcat (RegexPlus (RegexStar (Str2Reg "BB"))) (RegexConcat (RegexStar (RegexPlus (Str2Reg "CCC"))) (RegexConcat (RegexStar (RegexPlus (Str2Reg "DDD"))) (RegexConcat (RegexUnion (RegexPlus (Str2Reg "E")) (RegexPlus (Str2Reg "FFF"))) (RegexConcat (RegexPlus (RegexUnion (Str2Reg "GGG") (Str2Reg "HH"))) (RegexConcat (RegexPlus (RegexStar (Str2Reg "II"))) (RegexConcat (RegexUnion (RegexStar (Str2Reg "JJJ")) (RegexStar (Str2Reg "K"))) (RegexConcat (RegexStar (RegexUnion (Str2Reg "LLL") (Str2Reg "MM"))) (RegexConcat (RegexUnion (RegexStar (Str2Reg "NNN")) (RegexStar (Str2Reg "O"))) (RegexConcat (RegexUnion (RegexStar (Str2Reg "PPP")) (RegexStar (Str2Reg "QQQ"))) (RegexConcat (RegexUnion (RegexUnion (Str2Reg "R") (Str2Reg "S")) (RegexUnion (Str2Reg "TTT") (Str2Reg "U"))) (RegexConcat (RegexPlus (RegexPlus (Str2Reg "VVV"))) (RegexConcat (RegexPlus (RegexPlus (Str2Reg "WWW"))) (RegexConcat (RegexUnion (RegexUnion (Str2Reg "XX") (Str2Reg "YYY")) (RegexUnion (Str2Reg "ZZZ") (Str2Reg "!"))) (RegexConcat (RegexPlus (RegexStar (Str2Reg "\"\"\""))) (RegexConcat (RegexPlus (RegexStar (Str2Reg "##"))) (RegexConcat (RegexStar (RegexUnion (Str2Reg "$") (Str2Reg "%"))) (RegexConcat (RegexPlus (RegexUnion (Str2Reg "&&&") (Str2Reg "'"))) (RegexConcat (RegexStar (RegexStar (Str2Reg "((("))) (RegexConcat (RegexUnion (RegexStar (Str2Reg ")))")) (RegexStar (Str2Reg "*"))) (RegexConcat (RegexUnion (RegexStar (Str2Reg "+")) (RegexStar (Str2Reg ",,"))) (RegexConcat (RegexPlus (RegexUnion (Str2Reg "--") (Str2Reg ".."))) (RegexConcat (RegexStar (RegexStar (Str2Reg "/"))) (RegexConcat (RegexPlus (RegexUnion (Str2Reg ":") (Str2Reg ";"))) (RegexConcat (RegexStar (RegexPlus (Str2Reg "<"))) (RegexConcat (RegexStar (RegexStar (Str2Reg "=="))) (RegexConcat (RegexUnion (RegexUnion (Str2Reg ">") (Str2Reg "?")) (RegexUnion (Str2Reg "@@") (Str2Reg "[[["))) (RegexConcat (RegexPlus (RegexUnion (Str2Reg "\\\\\\") (Str2Reg "]"))) (RegexConcat (RegexStar (RegexUnion (Str2Reg "^^^") (Str2Reg "___"))) (RegexConcat (RegexPlus (RegexStar (Str2Reg "```"))) (RegexConcat (RegexStar (RegexStar (Str2Reg "{{"))) (RegexConcat (RegexStar (RegexUnion (Str2Reg "|") (Str2Reg "}}}"))) (RegexConcat (RegexUnion (RegexUnion (Str2Reg "~~") (Str2Reg "000")) (RegexUnion (Str2Reg "111") (Str2Reg "2"))) (RegexConcat (RegexStar (RegexStar (Str2Reg "33"))) (RegexConcat (RegexPlus (RegexStar (Str2Reg "4"))) (RegexConcat (RegexUnion (RegexStar (Str2Reg "55")) (RegexStar (Str2Reg "6"))) (RegexConcat (RegexStar (RegexUnion (Str2Reg "777") (Str2Reg "8"))) (RegexConcat (RegexPlus (RegexStar (Str2Reg "999"))) (RegexConcat (RegexStar (RegexPlus (Str2Reg "aa"))) (RegexConcat (RegexPlus (RegexUnion (Str2Reg "bb") (Str2Reg "cc"))) (RegexConcat (RegexUnion (RegexPlus (Str2Reg "d")) (RegexPlus (Str2Reg "ee"))) (RegexConcat (RegexUnion (RegexPlus (Str2Reg "fff")) (RegexPlus (Str2Reg "g"))) (RegexConcat (RegexPlus (RegexUnion (Str2Reg "hhh") (Str2Reg "i"))) (RegexConcat (RegexStar (RegexStar (Str2Reg "jjj"))) (RegexConcat (RegexPlus (RegexStar (Str2Reg "k"))) (RegexConcat (RegexPlus (RegexStar (Str2Reg "ll"))) (RegexConcat (RegexUnion (RegexStar (Str2Reg "mm")) (RegexStar (Str2Reg "nnn"))) (RegexConcat (RegexUnion (RegexStar (Str2Reg "o")) (RegexStar (Str2Reg "p"))) (RegexConcat (RegexPlus (RegexPlus (Str2Reg "qqq"))) (RegexConcat (RegexUnion (RegexUnion (Str2Reg "rr") (Str2Reg "sss")) (RegexUnion (Str2Reg "t") (Str2Reg "u"))) (RegexConcat (RegexStar (RegexStar (Str2Reg "vvv"))) (RegexConcat (RegexStar (RegexUnion (Str2Reg "ww") (Str2Reg "x"))) (RegexConcat (RegexUnion (RegexStar (Str2Reg "y")) (RegexStar (Str2Reg "zz"))) (RegexConcat (RegexUnion (RegexPlus (Str2Reg "AA")) (RegexPlus (Str2Reg "BBB"))) (RegexConcat (RegexUnion (RegexPlus (Str2Reg "CCC")) (RegexPlus (Str2Reg "DDD"))) (RegexConcat (RegexStar (RegexStar (Str2Reg "EE"))) (RegexConcat (RegexStar (RegexUnion (Str2Reg "FF") (Str2Reg "GG"))) (RegexConcat (RegexStar (RegexPlus (Str2Reg "H"))) (RegexConcat (RegexUnion (RegexStar (Str2Reg "II")) (RegexStar (Str2Reg "JJ"))) (RegexConcat (RegexStar (RegexUnion (Str2Reg "KKK") (Str2Reg "LL"))) (RegexConcat (RegexPlus (RegexUnion (Str2Reg "MM") (Str2Reg "NNN"))) (RegexConcat (RegexPlus (RegexPlus (Str2Reg "OO"))) (RegexConcat (RegexUnion (RegexStar (Str2Reg "P")) (RegexStar (Str2Reg "QQ"))) (RegexConcat (RegexUnion (RegexPlus (Str2Reg "RR")) (RegexPlus (Str2Reg "SSS"))) (RegexConcat (RegexStar (RegexStar (Str2Reg "TT"))) (RegexConcat (RegexStar (RegexUnion (Str2Reg "U") (Str2Reg "VV"))) (RegexConcat (RegexUnion (RegexPlus (Str2Reg "WWW")) (RegexPlus (Str2Reg "X"))) (RegexConcat (RegexStar (RegexUnion (Str2Reg "YYY") (Str2Reg "Z"))) (RegexConcat (RegexPlus (RegexUnion (Str2Reg "!!!") (Str2Reg "\""))) (RegexConcat (RegexPlus (RegexStar (Str2Reg "#"))) (RegexConcat (RegexUnion (RegexPlus (Str2Reg "$$$")) (RegexPlus (Str2Reg "%%%"))) (RegexConcat (RegexStar (RegexUnion (Str2Reg "&") (Str2Reg "'"))) (RegexConcat (RegexUnion (RegexPlus (Str2Reg "(((")) (RegexPlus (Str2Reg ")"))) (RegexConcat (RegexUnion (RegexStar (Str2Reg "**")) (RegexStar (Str2Reg "+"))) (RegexConcat (RegexUnion (RegexStar (Str2Reg ",")) (RegexStar (Str2Reg "-"))) (RegexConcat (RegexPlus (RegexUnion (Str2Reg ".") (Str2Reg "/"))) (RegexStar (RegexStar (Str2Reg "::")))))))))))))))))))))))))))))))))))))))))))))))))))))))))))))))))))))))))))))))))))))))))))))))))))))))
(check-sat)